p cnf 9 27
-2 0
5 0
8 -5 0
-5 4 -1 -9 0
-3 6 7 0
-8 -7 2 9 0
5 0
-6 -9 0
1 -3 0
-7 0
-2 6 7 0
-3 -2 0
1 2 -6 -1 0
1 4 -1 -9 0
-7 -6 -3 0
-6 5 0
-6 3 -2 0
-4 4 0
-8 9 -6 0
1 -7 -1 0
4 0
-8 -4 0
-2 0
2 7 -2 -9 0
-8 -4 6 0
-6 5 -9 0
6 0
